p cnf 14 23
14 12 6 0
14 12 -3 0
14 -9 8 0
14 9 -4 0
14 6 2 0
-14 -4 -1 0
-13 7 -6 0
13 -5 -4 0
-12 11 -6 0
-11 -9 3 0
11 -7 -5 0
11 5 -4 0
11 -5 -1 0
10 -8 -1 0
-10 6 -3 0
-8 -5 2 0
-8 5 -1 0
7 6 4 0
7 6 -4 0
7 6 -1 0
-6 -5 3 0
-5 3 -2 0
-3 2 -1 0
